41 38
80 85
99 90
41 96
6 14
1 29
68 86
94 44
60 52
99 51
24 3
89 64
53 17
87 91
35 4
4 99
58 50
1 58
87 11
6 15
10 49
37 86
68 38
70 2
4 92
38 53
41 1
92 73
84 10
28 80
7 97
24 80
46 31
71 89
53 67
92 73
44 16
8 68
96 72
32 85
44 53
47 16
15 45
22 41
45 47
75 91
87 51
64 66
24 48
8 35
55 85
61 36
81 76
54 79
29 4
9 79
19 59
32 32
44 24
87 64
55 42
59 88
35 81
69 69
25 35
35 90
43 3
93 25
63 35
69 47
50 79
35 83
73 34
98 81
93 82
14 26
89 75
29 83
8 2
17 28
70 81
69 95
96 69
85 35
1 98
65 27
46 72
20 89
37 82
36 75
87 82
100 33
87 35
26 76
80 70
18 97
51 83
26 10
55 80
10 93